p cnf 125 391
c t mc
1 -2 -3 0
-1 2 -3 0
1 2 3 0
-1 -2 3 0
-5 3 0
-5 4 0
-3 -4 5 0
6 7 -8 0
-6 -7 -8 0
6 -7 8 0
-6 7 8 0
-8 9 -10 0
8 -9 -10 0
-8 -9 10 0
8 9 10 0
-12 10 0
-12 -11 0
-10 11 12 0
5 -12 -13 0
-5 12 -13 0
5 12 13 0
-5 -12 13 0
17 -15 0
17 16 0
15 -16 -17 0
18 -17 0
18 9 0
17 -9 -18 0
14 18 -19 0
-14 -18 -19 0
14 -18 19 0
-14 18 19 0
-13 19 -20 0
13 -19 -20 0
-13 -19 20 0
13 19 20 0
-23 -21 0
-23 -22 0
21 22 23 0
25 23 0
25 -24 0
-23 24 -25 0
-28 26 0
-28 27 0
-26 -27 28 0
29 -28 0
29 -2 0
28 2 -29 0
-30 25 0
-30 29 0
-25 -29 30 0
20 -30 -31 0
-20 30 -31 0
20 30 31 0
-20 -30 31 0
-32 -33 -34 0
32 33 -34 0
-32 33 34 0
32 -33 34 0
35 34 0
35 -1 0
-34 1 -35 0
-36 31 0
-36 -35 0
-31 35 36 0
37 26 0
37 3 0
-26 -3 -37 0
7 -14 -38 0
-7 14 -38 0
7 14 38 0
-7 -14 38 0
38 7 -39 0
-38 -7 -39 0
38 -7 39 0
-38 7 39 0
40 -39 0
40 -10 0
39 10 -40 0
41 37 0
41 40 0
-37 -40 -41 0
42 -2 0
42 22 0
2 -22 -42 0
43 42 0
43 -8 0
-42 8 -43 0
44 41 0
44 43 0
-41 -43 -44 0
45 46 -47 0
-45 -46 -47 0
45 -46 47 0
-45 46 47 0
-15 6 -48 0
15 -6 -48 0
-15 -6 48 0
15 6 48 0
-49 -24 0
-49 -48 0
24 48 49 0
50 28 0
50 -49 0
-28 49 -50 0
47 -50 -51 0
-47 50 -51 0
47 50 51 0
-47 -50 51 0
53 52 0
53 45 0
-52 -45 -53 0
-54 16 0
-54 26 0
-16 -26 54 0
-53 54 -55 0
53 -54 -55 0
-53 -54 55 0
53 54 55 0
-51 -55 -56 0
51 55 -56 0
-51 55 56 0
51 -55 56 0
57 44 0
57 -56 0
-44 56 -57 0
-52 -49 -58 0
52 49 -58 0
-52 49 58 0
52 -49 58 0
59 -8 0
59 -33 0
8 33 -59 0
58 59 -60 0
-58 -59 -60 0
58 -59 60 0
-58 59 60 0
60 -52 -61 0
-60 52 -61 0
60 52 61 0
-60 -52 61 0
62 -9 0
62 -37 0
9 37 -62 0
-63 -4 0
-63 62 0
4 -62 63 0
64 -61 0
64 -63 0
61 63 -64 0
-66 46 0
-66 -65 0
-46 65 66 0
65 -66 -67 0
-65 66 -67 0
65 66 67 0
-65 -66 67 0
68 -64 0
68 67 0
64 -67 -68 0
-69 -48 0
-69 -18 0
48 18 69 0
-32 37 -70 0
32 -37 -70 0
-32 -37 70 0
32 37 70 0
46 -45 -71 0
-46 45 -71 0
46 45 71 0
-46 -45 71 0
-72 70 0
-72 71 0
-70 -71 72 0
-69 -72 -73 0
69 72 -73 0
-69 72 73 0
69 -72 73 0
74 -68 0
74 73 0
68 -73 -74 0
-75 -57 0
-75 74 0
57 -74 75 0
-76 23 0
-76 -28 0
-23 28 76 0
16 22 -77 0
-16 -22 -77 0
16 -22 77 0
-16 22 77 0
78 -1 0
78 -77 0
1 77 -78 0
79 28 0
79 27 0
-28 -27 -79 0
80 79 0
80 10 0
-79 -10 -80 0
81 78 0
81 -80 0
-78 80 -81 0
-82 -76 0
-82 81 0
76 -81 82 0
-84 -14 0
-84 -83 0
14 83 84 0
85 82 0
85 84 0
-82 -84 -85 0
-86 75 0
-86 -85 0
-75 85 86 0
-87 60 0
-87 -26 0
-60 26 87 0
88 87 0
88 50 0
-87 -50 -88 0
-89 -10 0
-89 -18 0
10 18 89 0
90 28 0
90 16 0
-28 -16 -90 0
-91 -89 0
-91 -90 0
89 90 91 0
92 42 0
92 -28 0
-42 28 -92 0
-92 -65 -93 0
92 65 -93 0
-92 65 93 0
92 -65 93 0
94 -91 0
94 -93 0
91 93 -94 0
-95 -23 0
-95 11 0
23 -11 95 0
-96 -38 0
-96 -39 0
38 39 96 0
95 -96 -97 0
-95 96 -97 0
95 96 97 0
-95 -96 97 0
-94 -97 -98 0
94 97 -98 0
-94 97 98 0
94 -97 98 0
99 27 -100 0
-99 -27 -100 0
99 -27 100 0
-99 27 100 0
98 -100 -101 0
-98 100 -101 0
98 100 101 0
-98 -100 101 0
88 101 -102 0
-88 -101 -102 0
88 -101 102 0
-88 101 102 0
103 -54 0
103 -99 0
54 99 -103 0
-22 -103 -104 0
22 103 -104 0
-22 103 104 0
22 -103 104 0
-105 102 0
-105 104 0
-102 -104 105 0
-106 86 0
-106 105 0
-86 -105 106 0
107 36 0
107 106 0
-36 -106 -107 0
-108 16 0
-108 45 0
-16 -45 108 0
-17 -45 -109 0
17 45 -109 0
-17 45 109 0
17 -45 109 0
-108 109 -110 0
108 -109 -110 0
-108 -109 110 0
108 109 110 0
-111 -38 0
-111 87 0
38 -87 111 0
112 -45 0
112 -23 0
45 23 -112 0
113 -111 0
113 112 0
111 -112 -113 0
-110 -113 -114 0
110 113 -114 0
-110 113 114 0
110 -113 114 0
115 32 0
115 -45 0
-32 45 -115 0
116 -114 0
116 115 0
114 -115 -116 0
117 16 0
117 45 0
-16 -45 -117 0
-118 -116 0
-118 117 0
116 -117 118 0
119 -18 -120 0
-119 18 -120 0
119 18 120 0
-119 -18 120 0
121 120 0
121 103 0
-120 -103 -121 0
-122 59 0
-122 65 0
-59 -65 122 0
-121 -122 -123 0
121 122 -123 0
-121 122 123 0
121 -122 123 0
-124 118 0
-124 -123 0
-118 123 124 0
107 124 -125 0
-107 -124 -125 0
107 -124 125 0
-107 124 125 0
-92 -1 77 63 -17 -51 6 103 19 -118 0
-42 -96 91 -121 111 -119 -78 31 70 64 0
107 -121 -8 52 0
-3 -91 -94 -24 125 -90 0
-43 -27 -95 -54 79 -32 72 0
-96 -54 116 -47 25 50 93 -17 67 0
-106 -125 26 0
-10 64 -20 -38 -113 -103 0
-72 75 -92 116 76 -108 0
-100 105 83 -70 12 -62 -121 -47 55 -9 0
82 65 55 -3 -43 33 -30 0
-90 94 -26 -42 119 0
-40 88 32 -43 60 -89 102 -75 -25 0
-70 109 71 -93 102 0
-108 -94 77 71 34 -119 51 -74 3 0
-81 -120 -27 68 0
-93 -69 -72 -92 -34 -17 0
121 90 28 -104 94 -63 -51 0
29 -113 -116 -86 35 0
27 70 21 13 -124 -81 -117 0
-51 110 121 61 0
-78 38 117 58 102 -116 -5 1 0
25 -7 5 71 -88 19 0
50 -113 -92 -65 115 -91 90 -68 71 0
33 -104 39 -30 121 -67 25 22 0
29 57 102 82 -94 -65 -15 0
4 -105 -47 -84 79 33 0
37 -59 -25 70 -102 31 -77 117 -18 48 0
-72 -103 -109 -53 -47 25 112 0
-74 -96 59 -41 -121 -111 0
-97 -79 -15 93 -43 -108 -78 61 0
69 -101 -109 0
-29 -30 51 99 34 0
67 93 65 -53 30 20 40 -79 114 -91 0
-87 -118 112 -28 70 4 -22 -100 0
-115 -23 97 69 106 0
-43 98 -8 40 -11 -83 84 7 87 0
60 101 -99 -15 -121 -8 51 -86 47 0
1 -2 108 -81 67 69 0
38 114 -125 0
-51 -31 -87 47 53 0
112 62 -2 -82 31 -1 -17 0
-1 -74 24 -122 56 -63 0
-79 -32 -5 0
-53 -66 -37 -124 -50 -27 -72 89 84 98 0
-109 -118 36 -122 -39 20 -24 -66 52 0
-111 -120 58 91 0
-90 108 11 75 -105 0
4 120 -42 -113 -74 -56 70 0
-40 -2 21 95 -93 65 0
48 72 26 9 114 62 59 77 -86 -99 0
125 0
